(set-info :smt-lib-version 2.6)
(set-logic QF_UFLRA)
(set-info :source |
MathSat group

|)
(set-info :category "random")
(set-info :status sat)
(declare-fun f0_1 (Real) Real)
(declare-fun f0_2 (Real Real) Real)
(declare-fun f0_3 (Real Real Real) Real)
(declare-fun f0_4 (Real Real Real Real) Real)
(declare-fun f1_1 (Real) Real)
(declare-fun f1_2 (Real Real) Real)
(declare-fun f1_3 (Real Real Real) Real)
(declare-fun f1_4 (Real Real Real Real) Real)
(declare-fun x0 () Real)
(declare-fun x1 () Real)
(declare-fun x2 () Real)
(declare-fun x3 () Real)
(declare-fun x4 () Real)
(declare-fun x5 () Real)
(declare-fun x6 () Real)
(declare-fun x7 () Real)
(declare-fun x8 () Real)
(declare-fun x9 () Real)
(declare-fun x10 () Real)
(declare-fun x11 () Real)
(declare-fun x12 () Real)
(declare-fun x13 () Real)
(declare-fun x14 () Real)
(declare-fun x15 () Real)
(declare-fun x16 () Real)
(declare-fun x17 () Real)
(declare-fun x18 () Real)
(declare-fun x19 () Real)
(declare-fun x20 () Real)
(declare-fun x21 () Real)
(declare-fun x22 () Real)
(declare-fun x23 () Real)
(declare-fun x24 () Real)
(declare-fun x25 () Real)
(declare-fun x26 () Real)
(declare-fun x27 () Real)
(declare-fun x28 () Real)
(declare-fun x29 () Real)
(declare-fun P0 () Bool)
(declare-fun P1 () Bool)
(declare-fun P2 () Bool)
(declare-fun P3 () Bool)
(declare-fun P4 () Bool)
(declare-fun P5 () Bool)
(declare-fun P6 () Bool)
(declare-fun P7 () Bool)
(declare-fun P8 () Bool)
(declare-fun P9 () Bool)
(declare-fun P10 () Bool)
(declare-fun P11 () Bool)
(declare-fun P12 () Bool)
(declare-fun P13 () Bool)
(declare-fun P14 () Bool)
(declare-fun P15 () Bool)
(declare-fun P16 () Bool)
(declare-fun P17 () Bool)
(declare-fun P18 () Bool)
(declare-fun P19 () Bool)
(declare-fun P20 () Bool)
(declare-fun P21 () Bool)
(declare-fun P22 () Bool)
(declare-fun P23 () Bool)
(declare-fun P24 () Bool)
(declare-fun P25 () Bool)
(declare-fun P26 () Bool)
(declare-fun P27 () Bool)
(declare-fun P28 () Bool)
(declare-fun P29 () Bool)
(assert (let ((?v_7 (* 13 x4)) (?v_15 (* 23 x26))) (let ((?v_108 (+ (- ?v_15 (* 20 x28)) (* 6 x5))) (?v_155 (* 6 x16))) (let ((?v_3 (- (- (* 7 x17) (* 5 x15)) ?v_155)) (?v_40 (* 27 x10)) (?v_100 (* 17 x11)) (?v_13 (f0_1 x14)) (?v_185 (f0_2 x0 x29)) (?v_55 (f0_1 x11)) (?v_107 (f1_1 x6)) (?v_128 (* 17 x14)) (?v_42 (f0_2 x15 x9)) (?v_173 (f0_2 x10 x20)) (?v_2 (f1_2 x23 x22)) (?v_20 (f0_2 x10 x17)) (?v_41 (f1_2 x14 x11)) (?v_1 (f0_1 x17)) (?v_6 (f1_1 x22)) (?v_16 (f0_1 x5))) (let ((?v_12 (- (+ (* 8 ?v_16) (* 7 x7)) (* 18 x16))) (?v_48 (f0_2 ?v_3 x0)) (?v_25 (f0_2 x21 x6)) (?v_22 (f1_2 x1 x27)) (?v_4 (f0_2 x11 x23)) (?v_28 (f1_1 x27)) (?v_127 (f0_1 x3)) (?v_17 (f1_1 x11)) (?v_32 (f0_1 x26)) (?v_106 (f1_1 x21))) (let ((?v_10 (f1_2 ?v_3 ?v_4)) (?v_36 (f0_2 x28 x15)) (?v_5 (f0_2 ?v_173 (+ (- (* 23 x21) (* 13 x9)) (* 26 x18)))) (?v_8 (+ (- (* 25 x0) (* 3 x4)) (* 20 x7))) (?v_154 (f0_1 ?v_106)) (?v_0 (- (+ (* 25 x29) (* 27 x27)) ?v_7)) (?v_95 (f1_2 x24 x6)) (?v_122 (f0_1 x24)) (?v_37 (f1_1 x3)) (?v_39 (f0_1 x13)) (?v_96 (f0_1 ?v_108)) (?v_145 (f0_1 x19)) (?v_62 (f1_2 x20 x26)) (?v_290 (f0_2 x24 x3)) (?v_192 (f0_1 x9)) (?v_207 (f0_2 x12 x3)) (?v_182 (< ?v_1 11))) (let ((?v_101 (< ?v_0 19)) (?v_73 (< ?v_36 13)) (?v_331 (= ?v_5 ?v_1)) (?v_61 (< ?v_20 16)) (?v_180 (= (f1_1 x15) x27)) (?v_284 (= x11 (f1_2 x27 x23))) (?v_97 (< x3 9)) (?v_165 (< ?v_37 29)) (?v_138 (= ?v_96 x2)) (?v_286 (< x5 1)) (?v_92 (< ?v_106 11)) (?v_269 (= ?v_207 x11)) (?v_166 (< x21 23)) (?v_335 (< (f1_1 x20) 5)) (?v_181 (= ?v_20 ?v_107)) (?v_113 (< x29 4)) (?v_216 (< ?v_17 3)) (?v_167 (= ?v_107 ?v_108)) (?v_304 (< x6 18)) (?v_299 (< ?v_290 25)) (?v_150 (< (f1_1 ?v_37) 13)) (?v_220 (< x29 17)) (?v_195 (< ?v_1 26)) (?v_310 (< ?v_36 23)) (?v_69 (= x1 ?v_122)) (?v_257 (= (f0_2 x25 x19) x8)) (?v_83 (= (f1_1 x26) ?v_48)) (?v_213 (< ?v_207 17)) (?v_29 (= ?v_28 ?v_13)) (?v_178 (< x27 20)) (?v_79 (< ?v_22 29)) (?v_252 (< x10 23)) (?v_104 (= x25 ?v_17)) (?v_337 (< x29 28)) (?v_47 (< (f0_1 x1) 8)) (?v_268 (= x5 ?v_22)) (?v_262 (< ?v_42 15)) (?v_85 (< (+ (- (* 27 x6) ?v_100) (* 22 x4)) 10)) (?v_217 (= ?v_25 x21)) (?v_175 (= (- (+ ?v_40 (* 18 x23)) (* 12 x3)) ?v_41)) (?v_105 (< x20 18)) (?v_238 (= ?v_0 (f1_1 ?v_185))) (?v_60 (< ?v_10 4)) (?v_201 (< ?v_22 11)) (?v_196 (< ?v_4 20)) (?v_294 (= (f0_2 x4 x7) x9)) (?v_58 (< ?v_2 29)) (?v_21 (< x5 12)) (?v_35 (= x7 x22)) (?v_111 (< ?v_42 16)) (?v_248 (< ?v_55 1)) (?v_129 (< ?v_32 8)) (?v_132 (< x18 10)) (?v_23 (< ?v_62 15)) (?v_322 (= ?v_39 ?v_145)) (?v_140 (< ?v_95 17)) (?v_168 (= ?v_96 ?v_12)) (?v_126 (< (+ (- ?v_128 (* 10 x14)) (* 24 x26)) 5)) (?v_102 (< ?v_12 9)) (?v_125 (= x16 ?v_36)) (?v_233 (< ?v_192 11)) (?v_338 (< ?v_20 7)) (?v_77 (< ?v_41 2)) (?v_45 (not P22))) (let ((?v_188 (not ?v_79)) (?v_295 (not ?v_238)) (?v_184 (not ?v_101)) (?v_119 (not P21)) (?v_215 (not ?v_284)) (?v_115 (not ?v_97)) (?v_247 (not ?v_331)) (?v_33 (not ?v_21)) (?v_27 (not P24)) (?v_209 (not P15)) (?v_91 (not ?v_47)) (?v_203 (not ?v_104)) (?v_80 (not P12)) (?v_230 (not ?v_61)) (?v_50 (not ?v_299)) (?v_66 (not ?v_201)) (?v_267 (not ?v_257)) (?v_34 (not ?v_29)) (?v_242 (not ?v_338)) (?v_156 (not ?v_294)) (?v_317 (not ?v_125)) (?v_68 (not ?v_165)) (?v_121 (not ?v_111)) (?v_49 (not ?v_195)) (?v_212 (not ?v_182)) (?v_84 (not P10)) (?v_275 (not ?v_58)) (?v_161 (not P18)) (?v_67 (not ?v_132)) (?v_234 (not (< ?v_62 27))) (?v_88 (not P28)) (?v_223 (not ?v_180)) (?v_333 (not ?v_69)) (?v_94 (not ?v_83)) (?v_137 (not (< ?v_22 24))) (?v_163 (not ?v_85)) (?v_206 (not ?v_129)) (?v_327 (not ?v_140)) (?v_190 (not P13)) (?v_149 (not ?v_138)) (?v_236 (not P25)) (?v_151 (not P2)) (?v_176 (not ?v_304)) (?v_273 (not ?v_105)) (?v_332 (not ?v_35)) (?v_133 (not P9)) (?v_287 (not P4)) (?v_307 (not ?v_310)) (?v_152 (not P7)) (?v_298 (not ?v_335)) (?v_245 (not ?v_73)) (?v_292 (not P8)) (?v_160 (not ?v_150)) (?v_249 (not P3)) (?v_169 (not ?v_166)) (?v_251 (not ?v_262)) (?v_266 (not ?v_60)) (?v_270 (not P11)) (?v_240 (not P14)) (?v_228 (not ?v_168)) (?v_254 (not ?v_220)) (?v_297 (not ?v_252)) (?v_202 (not P26)) (?v_200 (not P20)) (?v_191 (not P6)) (?v_194 (not ?v_167)) (?v_227 (not P23)) (?v_339 (not ?v_233)) (?v_306 (not ?v_196)) (?v_309 (not (< x5 25))) (?v_271 (not ?v_213)) (?v_300 (not P1)) (?v_336 (not ?v_178)) (?v_318 (not ?v_337)) (?v_253 (not ?v_268)) (?v_319 (not P29)) (?v_311 (not ?v_77)) (?v_313 (not P17)) (?v_71 (= ?v_4 (- (+ (* 20 x19) (* 4 x19)) x26))) (?v_14 (- (+ (* 10 x26) x5) (* 27 x15)))) (let ((?v_18 (< ?v_14 4)) (?v_314 (< ?v_14 12))) (let ((?v_89 (not ?v_314)) (?v_57 (+ ?v_15 (* 27 x26) (* 14 x6))) (?v_198 (not ?v_18)) (?v_136 (+ (* 22 x19) (* 27 x29) (* 16 x12)))) (let ((?v_226 (< (f0_1 ?v_136) 8))) (let ((?v_103 (not ?v_226)) (?v_87 (+ (- (* 26 x26) (* 24 ?v_20)) (* 18 ?v_57)))) (let ((?v_146 (= (f0_2 x5 x16) ?v_87)) (?v_303 (< ?v_87 10))) (let ((?v_258 (not ?v_303)) (?v_174 (not ?v_71)) (?v_283 (not ?v_146)) (?v_19 (< (- (- (* (- 6) x5) (* 11 x8)) (* 21 x9)) 6)) (?v_11 (- (+ (* (- 19) x29) (* 11 x1)) (* 19 x18)))) (let ((?v_117 (< ?v_11 0)) (?v_65 (- (+ (* (- 19) ?v_2) (* 22 ?v_1)) (* 25 ?v_5)))) (let ((?v_53 (< ?v_65 22))) (let ((?v_193 (not ?v_53)) (?v_147 (+ (* (- 18) ?v_1) (* 9 x19) (* 22 x5)))) (let ((?v_321 (< ?v_147 17))) (let ((?v_211 (not ?v_321)) (?v_274 (+ (- (* (- 20) x27) (* 14 x28)) ?v_40))) (let ((?v_9 (- (- (* 13 ?v_274) (* 29 x17)) (* 25 x6)))) (let ((?v_157 (< ?v_9 (- 28)))) (let ((?v_135 (not ?v_157)) (?v_118 (+ (* (- 1) x11) (* 14 x19) (* 22 x27)))) (let ((?v_38 (- (- (* (- 20) ?v_118) (* 27 ?v_2)) (* 5 ?v_3)))) (let ((?v_59 (f0_1 ?v_38))) (let ((?v_289 (< ?v_59 6)) (?v_31 (- (- (* (- 19) ?v_1) (* 26 ?v_13)) (* 2 ?v_6)))) (let ((?v_199 (- (- (* 29 ?v_31) (* 24 ?v_10)) (* 21 ?v_17)))) (let ((?v_98 (< ?v_199 1)) (?v_54 (< ?v_8 (- 4))) (?v_70 (< ?v_6 (- 23))) (?v_162 (< (- (- (* (- 12) x13) (* 19 x24)) ?v_7) 6))) (let ((?v_229 (not ?v_162)) (?v_110 (< x24 (- 28))) (?v_26 (< ?v_8 (- 17))) (?v_46 (= ?v_9 x5)) (?v_44 (- (- (* (- 16) x21) (* 29 x27)) (* 22 x0)))) (let ((?v_134 (< (- (+ (* (- 14) ?v_10) (* 20 (f1_2 x0 x7))) (* 2 ?v_44)) 19)) (?v_74 (< ?v_55 (- 24)))) (let ((?v_124 (not ?v_74)) (?v_130 (< (+ (* (- 20) ?v_11) (* 25 x7) (* 21 ?v_32)) (- 20)))) (let ((?v_263 (not ?v_130)) (?v_171 (< x4 (- 24))) (?v_30 (= (- (- (* (- 19) x0) (* 17 x19)) (* 3 x24)) ?v_57))) (let ((?v_143 (not ?v_30)) (?v_82 (< x22 (- 8))) (?v_24 (< (f0_1 ?v_16) (- 22))) (?v_187 (not ?v_19)) (?v_72 (< (- (- (* (- 2) x14) (* 25 x9)) (* 6 x11)) (- 10))) (?v_183 (< ?v_25 (- 5)))) (let ((?v_139 (not ?v_183)) (?v_43 (< (f0_2 x10 x14) (- 18)))) (let ((?v_285 (not ?v_43)) (?v_148 (not (< ?v_28 (- 12)))) (?v_164 (< x9 (- 2)))) (let ((?v_225 (not ?v_164)) (?v_63 (< ?v_31 27)) (?v_78 (< ?v_32 (- 6)))) (let ((?v_259 (not ?v_78)) (?v_52 (+ (* (- 1) ?v_42) (* 11 ?v_3) (* 16 (- (+ (* (- 13) x22) (* 10 x29)) (* 6 x13)))))) (let ((?v_179 (< ?v_52 (- 7)))) (let ((?v_158 (not ?v_179)) (?v_75 (= ?v_38 ?v_39)) (?v_86 (< (f0_1 x23) (- 4))) (?v_56 (< (+ (* 5 x4) (* 9 x23) (* 15 x16)) (- 4))) (?v_51 (< ?v_38 11)) (?v_112 (< ?v_44 (- 26))) (?v_109 (< ?v_16 (- 11)))) (let ((?v_189 (not ?v_109)) (?v_93 (+ (* (- 16) x3) (* 27 ?v_48) (* 25 ?v_95)))) (let ((?v_341 (< ?v_93 (- 9)))) (let ((?v_116 (not ?v_341)) (?v_99 (= (+ (* (- 16) x23) (* 7 x8) (* 24 x1)) ?v_127)) (?v_114 (< ?v_52 24)) (?v_329 (not ?v_56)) (?v_64 (< ?v_59 25)) (?v_76 (= ?v_65 x8))) (let ((?v_123 (not ?v_76)) (?v_81 (f0_2 ?v_38 x23))) (let ((?v_237 (< ?v_81 27)) (?v_131 (not ?v_70)) (?v_221 (not ?v_75)) (?v_144 (< ?v_81 (- 17))) (?v_224 (< x28 (- 26)))) (let ((?v_323 (not ?v_224)) (?v_276 (not ?v_86)) (?v_90 (< x25 (- 18))) (?v_170 (not ?v_46))) (let ((?v_218 (not ?v_90)) (?v_255 (= x12 ?v_93)) (?v_142 (< (- (- ?v_100 (* 21 x13)) (* 28 x22)) (- 10))) (?v_279 (< (- (+ (* (- 25) x2) (* 25 x16)) (* 19 x8)) (- 7)))) (let ((?v_260 (not ?v_279)) (?v_232 (< ?v_154 (- 14)))) (let ((?v_219 (not ?v_232)) (?v_159 (< ?v_55 (- 21))) (?v_222 (= x13 ?v_52)) (?v_172 (< ?v_118 20))) (let ((?v_308 (not ?v_172)) (?v_120 (not ?v_112)) (?v_246 (< ?v_127 (- 6)))) (let ((?v_282 (not ?v_246)) (?v_324 (< (- (+ (* (- 1) x7) (* 14 ?v_25)) (* 18 (+ (* 20 x8) (* 7 x28) ?v_128))) (- 14))) (?v_208 (= x4 ?v_9)) (?v_316 (< ?v_14 (- 25))) (?v_256 (< ?v_136 (- 28))) (?v_305 (< ?v_96 (- 27)))) (let ((?v_239 (not ?v_305)) (?v_141 (not ?v_110)) (?v_153 (not ?v_142)) (?v_243 (not ?v_144)) (?v_261 (= ?v_118 ?v_145)) (?v_301 (< (- (- (* (- 18) ?v_48) (* 6 ?v_147)) x29) 16))) (let ((?v_186 (not ?v_301)) (?v_197 (= ?v_154 (+ (* (- 24) x0) (* 4 x17) ?v_155))) (?v_281 (< (f1_1 x0) (- 11))) (?v_177 (not ?v_82)) (?v_264 (< (f1_1 x5) (- 7)))) (let ((?v_277 (not ?v_264)) (?v_231 (< ?v_192 (- 2))) (?v_325 (not ?v_98)) (?v_250 (< (- (- (* (- 29) x12) (* 3 x26)) (* 22 x17)) 14)) (?v_296 (= ?v_173 ?v_59))) (let ((?v_205 (not ?v_296)) (?v_302 (not ?v_24)) (?v_340 (< ?v_93 2))) (let ((?v_291 (not ?v_340)) (?v_288 (not ?v_99)) (?v_214 (< ?v_81 (- 18)))) (let ((?v_210 (not ?v_214)) (?v_204 (< ?v_185 (- 23))) (?v_235 (< ?v_199 0))) (let ((?v_241 (not ?v_235)) (?v_265 (< ?v_59 20))) (let ((?v_244 (not ?v_265)) (?v_330 (not ?v_237)) (?v_315 (not ?v_72)) (?v_293 (not ?v_256)) (?v_278 (not (< x13 (- 29)))) (?v_272 (not ?v_250)) (?v_280 (not ?v_171)) (?v_312 (not (< ?v_290 (- 29)))) (?v_326 (= x7 (f1_2 ?v_38 ?v_185))) (?v_320 (not (< ?v_290 (- 19)))) (?v_334 (not ?v_316)) (?v_328 (not ?v_324))) (and (and (and (and (and (and (and (and (and (and (and (and (and (and (and (and (and (and (and (and (and (and (and (and (and (and (and (and (and (and (and (and (and (and (and (and (and (and (and (and (and (and (and (and (and (and (and (and (and (and (and (and (and (and (and (and (and (and (and (and (and (and (and (and (and (and (and (and (and (and (and (and (and (and (and (and (and (and (and (and (and (and (and (and (and (and (and (and (and (and (and (and (and (and (and (and (and (and (and (and (and (and (and (and (and (and (and (and (and (and (and (and (and (and (and (and (and (and (and (and (and (and (and (and (and (and (and (and (and (and (and (and (and (and (and (and (and (and (and (and (and (and (and (and (and (and (and (and (and (and (and (and (and (and (and (and (and (and (and (and (and (and (and (and (and (and (and (and (and (and (and (and (and (and (and (and (and (and (and (and (and (and (and (and (and (and (and (and (and (and (and (and (and (and (and (and (and (and (and (and (and (and (and (and (and (and (and (and (and (and (and (and (and (and (and (and (and (and (and (and (and (and (and (and (and (and (and (and (and (and (and (and (and (and (and (and (and (and (and (and (and (and (and (and (and (and (and (and (and (and (and (and (and (and (and (and (and (and (and (and (and (and (and (and (and (and (and (and (and (and (and (and (and (and (and (and (and (and (and (and (and (and (and (and (and (and (and (and (and (and (and (and (and (and (and (and (and (and (and (or (or ?v_19 ?v_45) ?v_188) (or (or (not ?v_117) ?v_295) ?v_71)) (or (or ?v_193 ?v_184) ?v_119)) (or (or ?v_211 ?v_135) ?v_217)) (or (or ?v_289 ?v_168) P27)) (or (or ?v_98 ?v_215) P2)) (or (or ?v_115 ?v_54) ?v_247)) (or (or ?v_85 ?v_18) ?v_70)) (or (or ?v_229 ?v_110) (not ?v_26))) (or (or ?v_46 (not ?v_134)) ?v_33)) (or (or P10 ?v_124) ?v_27)) (or (or ?v_263 ?v_171) ?v_181)) (or (or ?v_102 ?v_29) ?v_73)) (or (or ?v_83 ?v_89) ?v_143)) (or (or P24 ?v_209) ?v_82)) (or (or ?v_69 ?v_24) ?v_322)) (or (or ?v_91 ?v_203) ?v_80)) (or (or ?v_198 ?v_60) ?v_187)) (or (or (not ?v_23) ?v_35) ?v_230)) (or (or ?v_50 ?v_21) ?v_66)) (or (or ?v_72 ?v_23) ?v_178)) (or (or P10 ?v_24) ?v_267)) (or (or ?v_139 ?v_26) ?v_285)) (or (or P20 ?v_27) ?v_148)) (or (or ?v_150 ?v_34) ?v_113)) (or (or ?v_30 ?v_225) ?v_63)) (or (or ?v_259 ?v_242) (not P5))) (or (or ?v_33 ?v_92) ?v_103)) (or (or ?v_156 ?v_34) ?v_35)) (or (or ?v_77 P12) ?v_158)) (or (or ?v_317 ?v_68) ?v_75)) (or (or (not ?v_175) ?v_126) ?v_86)) (or (or P4 ?v_121) ?v_56)) (or (or ?v_51 ?v_43) ?v_112)) (or (or ?v_49 ?v_189) ?v_45)) (or (or ?v_46 ?v_47) P4)) (or (or ?v_116 P18) ?v_49)) (or (or ?v_50 ?v_212) (not ?v_51))) (or (or ?v_49 ?v_84) ?v_99)) (or (or ?v_114 ?v_53) ?v_275)) (or (or ?v_105 ?v_161) ?v_26)) (or (or ?v_54 (not ?v_248)) ?v_329)) (or (or ?v_67 ?v_146) ?v_58)) (or (or ?v_64 ?v_35) ?v_60)) (or (or ?v_61 ?v_234) ?v_63)) (or (or ?v_88 ?v_64) ?v_123)) (or (or ?v_66 ?v_237) ?v_67)) (or (or ?v_68 ?v_223) ?v_333)) (or (or ?v_131 ?v_166) ?v_71)) (or (or ?v_72 ?v_73) ?v_74)) (or (or ?v_221 ?v_76) ?v_77)) (or (or ?v_78 ?v_79) ?v_68)) (or (or ?v_80 ?v_144) ?v_82)) (or (or ?v_51 ?v_94) ?v_84)) (or (or ?v_137 ?v_163) ?v_323)) (or (or ?v_276 ?v_258) ?v_90)) (or (or (< x6 (- 3)) ?v_170) ?v_88)) (or (or ?v_89 ?v_206) ?v_24)) (or (or ?v_70 P7) (not ?v_269))) (or (or ?v_218 ?v_91) ?v_88)) (or (or ?v_92 ?v_255) ?v_94)) (or (or ?v_327 ?v_190) ?v_18)) (or (or ?v_149 ?v_97) ?v_30)) (or (or ?v_45 ?v_60) ?v_98)) (or (or ?v_236 ?v_74) ?v_99)) (or (or ?v_142 ?v_101) ?v_151)) (or (or (not ?v_102) ?v_260) ?v_103)) (or (or ?v_176 ?v_104) ?v_174)) (or (or P17 P2) ?v_196)) (or (or ?v_273 ?v_219) ?v_167)) (or (or P29 ?v_109) ?v_110)) (or (or ?v_110 ?v_332) ?v_66)) (or (or ?v_159 ?v_18) (not ?v_222))) (or (or ?v_45 ?v_111) ?v_112)) (or (or P21 ?v_113) P14)) (or (or P7 ?v_114) ?v_115)) (or (or P17 ?v_116) ?v_133)) (or (or ?v_117 ?v_308) ?v_70)) (or (or ?v_119 ?v_68) ?v_120)) (or (or ?v_120 ?v_121) (< ?v_122 (- 13)))) (or (or ?v_123 ?v_27) ?v_124)) (or (or ?v_287 ?v_125) ?v_126)) (or (or ?v_282 ?v_64) ?v_324)) (or (or P19 ?v_129) ?v_208)) (or (or ?v_130 ?v_29) ?v_316)) (or (or ?v_131 ?v_132) ?v_307)) (or (or P13 ?v_133) ?v_152)) (or (or P8 ?v_110) ?v_120)) (or (or ?v_134 ?v_298) ?v_135)) (or (or ?v_256 ?v_137) ?v_239)) (or (or ?v_47 ?v_138) ?v_99)) (or (or ?v_64 ?v_139) ?v_141)) (or (or ?v_245 ?v_119) ?v_140)) (or (or ?v_141 ?v_153) ?v_143)) (or (or ?v_292 ?v_243) ?v_34)) (or (or ?v_216 ?v_261) ?v_146)) (or (or ?v_186 ?v_148) ?v_149)) (or (or ?v_160 ?v_151) ?v_152)) (or (or ?v_148 P18) ?v_153)) (or (or (not ?v_197) P15) P25)) (or (or ?v_281 P2) ?v_156)) (or (or ?v_157 ?v_249) ?v_158)) (or (or ?v_177 ?v_159) ?v_160)) (or (or ?v_161 ?v_162) ?v_163)) (or (or ?v_64 ?v_164) (not ?v_63))) (or (or ?v_165 ?v_169) ?v_277)) (or (or ?v_167 ?v_251) ?v_266)) (or (or ?v_270 ?v_240) ?v_228)) (or (or ?v_254 ?v_297) ?v_169)) (or (or ?v_83 (not ?v_231)) ?v_325)) (or (or ?v_170 ?v_101) ?v_171)) (or (or ?v_172 ?v_163) ?v_73)) (or (or ?v_250 ?v_115) ?v_205)) (or (or P21 ?v_174) ?v_202)) (or (or ?v_175 ?v_78) ?v_133)) (or (or ?v_302 ?v_176) ?v_177)) (or (or ?v_176 ?v_178) ?v_146)) (or (or ?v_200 P18) ?v_133)) (or (or P11 ?v_119) ?v_291)) (or (or P1 ?v_61) ?v_179)) (or (or ?v_180 ?v_143) ?v_126)) (or (or ?v_181 ?v_68) ?v_288)) (or (or P23 P11) ?v_68)) (or (or ?v_182 ?v_19) ?v_82)) (or (or (not ?v_286) ?v_183) ?v_184)) (or (or ?v_210 ?v_204) ?v_186)) (or (or ?v_187 ?v_157) ?v_188)) (or (or ?v_191 ?v_189) ?v_179)) (or (or ?v_21 ?v_120) ?v_190)) (or (or ?v_124 ?v_194) ?v_227)) (or (or ?v_169 ?v_82) ?v_97)) (or (or ?v_191 P20) ?v_339)) (or (or ?v_193 ?v_194) ?v_160)) (or (or ?v_92 ?v_195) ?v_306)) (or (or ?v_197 ?v_186) P17)) (or (or ?v_198 ?v_241) ?v_129)) (or (or ?v_67 ?v_134) ?v_200)) (or (or ?v_24 ?v_201) ?v_202)) (or (or P27 ?v_101) ?v_203)) (or (or (not ?v_204) ?v_309) ?v_205)) (or (or ?v_206 P16) ?v_113)) (or (or ?v_271 ?v_208) ?v_209)) (or (or ?v_300 ?v_210) ?v_157)) (or (or ?v_211 ?v_212) ?v_189)) (or (or ?v_213 ?v_82) ?v_58)) (or (or ?v_214 ?v_215) ?v_216)) (or (or P0 ?v_217) P19)) (or (or ?v_218 ?v_219) ?v_220)) (or (or ?v_221 ?v_119) ?v_244)) (or (or ?v_222 P9) ?v_84)) (or (or ?v_169 ?v_60) ?v_92)) (or (or ?v_223 P12) P13)) (or (or P26 ?v_224) ?v_21)) (or (or ?v_225 ?v_71) ?v_226)) (or (or ?v_159 ?v_227) ?v_228)) (or (or ?v_105 ?v_179) ?v_229)) (or (or ?v_168 ?v_49) ?v_220)) (or (or ?v_56 ?v_230) ?v_336)) (or (or ?v_231 ?v_189) P15)) (or (or ?v_86 P24) ?v_74)) (or (or P13 ?v_232) ?v_233)) (or (or ?v_73 ?v_204) ?v_116)) (or (or ?v_234 ?v_318) ?v_210)) (or (or P24 ?v_150) ?v_235)) (or (or ?v_236 ?v_167) ?v_74)) (or (or (not ?v_159) ?v_330) ?v_238)) (or (or ?v_239 ?v_75) ?v_102)) (or (or ?v_240 ?v_101) ?v_156)) (or (or ?v_90 ?v_232) ?v_184)) (or (or ?v_241 ?v_253) ?v_242)) (or (or ?v_243 ?v_244) ?v_245)) (or (or ?v_30 ?v_217) ?v_188)) (or (or ?v_177 ?v_246) ?v_319)) (or (or ?v_131 ?v_225) ?v_247)) (or (or ?v_248 ?v_249) ?v_250)) (or (or ?v_251 ?v_203) ?v_166)) (or (or ?v_124 ?v_49) P21)) (or (or ?v_144 ?v_242) P20)) (or (or ?v_252 ?v_174) ?v_253)) (or (or ?v_254 ?v_211) ?v_315)) (or (or ?v_123 ?v_53) (not ?v_255))) (or (or ?v_144 ?v_214) ?v_130)) (or (or ?v_132 ?v_117) ?v_24)) (or (or ?v_293 ?v_278) ?v_91)) (or (or ?v_257 ?v_258) ?v_34)) (or (or ?v_46 ?v_259) ?v_138)) (or (or ?v_260 ?v_311) ?v_272)) (or (or ?v_261 ?v_234) ?v_159)) (or (or ?v_262 ?v_91) ?v_49)) (or (or ?v_58 ?v_113) ?v_126)) (or (or ?v_123 ?v_219) ?v_263)) (or (or ?v_264 ?v_265) ?v_209)) (or (or ?v_165 ?v_266) ?v_63)) (or (or ?v_230 ?v_233) ?v_267)) (or (or ?v_268 P7) P4)) (or (or ?v_164 ?v_269) ?v_137)) (or (or ?v_82 ?v_131) ?v_280)) (or (or ?v_270 P18) ?v_283)) (or (or ?v_121 ?v_24) P3)) (or (or ?v_271 ?v_172) ?v_272)) (or (or ?v_273 ?v_164) (< ?v_274 16))) (or (or ?v_275 P6) ?v_126)) (or (or ?v_276 ?v_277) ?v_235)) (or (or ?v_247 ?v_215) ?v_50)) (or (or ?v_82 ?v_278) ?v_279)) (or (or ?v_280 (not ?v_281)) ?v_282)) (or (or ?v_138 ?v_283) ?v_150)) (or (or ?v_284 ?v_170) ?v_285)) (or (or ?v_175 ?v_116) ?v_223)) (or (or ?v_72 ?v_286) ?v_124)) (or (or ?v_287 ?v_248) ?v_282)) (or (or ?v_288 ?v_289) ?v_70)) (or (or ?v_312 P28) P2)) (or (or ?v_291 ?v_24) ?v_177)) (or (or ?v_50 ?v_292) P11)) (or (or ?v_293 ?v_294) ?v_313)) (or (or ?v_144 ?v_78) P22)) (or (or ?v_208 ?v_94) (not ?v_54))) (or (or ?v_295 (not ?v_326)) ?v_73)) (or (or ?v_246 ?v_162) ?v_296)) (or (or ?v_139 ?v_297) ?v_298)) (or (or ?v_231 ?v_148) ?v_299)) (or (or ?v_51 ?v_300) ?v_301)) (or (or ?v_104 ?v_302) P8)) (or (or ?v_19 ?v_270) ?v_85)) (or (or ?v_54 (not ?v_216)) ?v_303)) (or (or ?v_149 ?v_299) ?v_304)) (or (or ?v_305 ?v_91) ?v_289)) (or (or ?v_306 ?v_307) ?v_23)) (or (or P6 P22) ?v_308)) (or (or ?v_270 ?v_205) ?v_295)) (or (or P5 ?v_171) P19)) (or (or P18 ?v_277) ?v_320)) (or (or ?v_301 ?v_309) ?v_67)) (or (or P12 ?v_198) ?v_24)) (or (or ?v_157 P10) ?v_163)) (or (or ?v_125 P1) P23)) (or (or ?v_310 ?v_311) ?v_45)) (or (or ?v_206 ?v_135) ?v_91)) (or (or ?v_191 (not ?v_261)) ?v_312)) (or (or ?v_244 P25) ?v_313)) (or (or ?v_302 P6) ?v_60)) (or (or ?v_162 ?v_302) ?v_314)) (or (or ?v_74 ?v_72) ?v_125)) (or (or ?v_301 ?v_92) P25)) (or (or ?v_310 ?v_277) ?v_315)) (or (or ?v_174 ?v_79) ?v_116)) (or (or ?v_134 ?v_56) ?v_334)) (or (or ?v_198 ?v_253) ?v_80)) (or (or ?v_119 ?v_105) ?v_241)) (or (or ?v_317 P11) ?v_183)) (or (or ?v_114 ?v_131) ?v_99)) (or (or ?v_318 ?v_102) ?v_308)) (or (or ?v_56 ?v_177) ?v_51)) (or (or ?v_319 ?v_123) ?v_237)) (or (or ?v_320 ?v_321) ?v_262)) (or (or ?v_177 ?v_302) (not ?v_322))) (or (or ?v_78 ?v_139) ?v_323)) (or (or (not ?v_126) ?v_172) ?v_141)) (or (or ?v_328 ?v_170) ?v_325)) (or (or ?v_287 ?v_212) ?v_217)) (or (or ?v_58 ?v_326) ?v_180)) (or (or ?v_318 ?v_105) ?v_327)) (or (or ?v_129 ?v_328) ?v_121)) (or (or ?v_315 ?v_329) ?v_124)) (or (or ?v_241 ?v_111) P29)) (or (or ?v_131 ?v_275) ?v_71)) (or (or ?v_330 P19) ?v_331)) (or (or ?v_253 ?v_237) ?v_167)) (or (or ?v_256 (not ?v_64)) ?v_168)) (or (or ?v_332 P24) ?v_333)) (or (or ?v_334 ?v_267) ?v_18)) (or (or ?v_288 P27) ?v_69)) (or (or ?v_73 P23) ?v_83)) (or (or ?v_335 ?v_254) ?v_286)) (or (or ?v_301 ?v_240) ?v_292)) (or (or ?v_336 ?v_337) ?v_165)) (or (or ?v_276 ?v_338) ?v_84)) (or (or ?v_313 ?v_205) ?v_180)) (or (or ?v_328 ?v_332) ?v_33)) (or (or ?v_168 ?v_126) ?v_78)) (or (or ?v_150 ?v_133) ?v_321)) (or (or ?v_177 ?v_221) ?v_190)) (or (or ?v_280 ?v_189) ?v_268)) (or (or ?v_339 ?v_75) ?v_340)) (or (or ?v_309 ?v_270) ?v_282)) (or (or ?v_61 P19) ?v_297)) (or (or ?v_251 ?v_257) ?v_237)) (or (or ?v_186 ?v_271) ?v_167)) (or (or ?v_76 ?v_339) ?v_85)) (or (or ?v_115 ?v_281) ?v_287)) (or (or ?v_316 (not ?v_217)) ?v_332)) (or (or ?v_203 ?v_83) ?v_283)) (or (or ?v_79 ?v_304) ?v_116)) (or (or ?v_165 ?v_324) ?v_307)) (or (or ?v_253 ?v_238) ?v_341)) (or (or ?v_67 ?v_331) P2)) (or (or ?v_240 ?v_213) ?v_273)) (or (or ?v_245 ?v_257) P1)) (or (or ?v_217 P11) ?v_303)))))))))))))))))))))))))))))))))))))))))))))))))))))))))))
(check-sat)
(exit)
